c [MSE2022] -- begin -- [MSE2022]
0.00/0.00	c
0.00/0.00	c NuWLS based on TT-Open-WBO-Inc:	 an Anytime MaxSAT Solver --- based on Glucose4.1 (core version)
0.00/0.00	c Version:	 MaxSAT Evaluation 2021
0.00/0.00	c Author of NuWLS:	 Yi Chu, Xiang He
0.00/0.00	c Author of TT-Open-WBO-Inc:	 Alexander Nadel
0.00/0.00	c Authors of the baseline solver Open-WBO-Inc:	 Saurabh Joshi, Prateek Kumar, Ruben Martins, Sukrut Rao
0.00/0.00	c WARNING: for repeatability, setting FPU to use double precision
0.00/0.00	c |                                                                                                       |
0.00/0.00	c ========================================[ Problem Statistics ]===========================================
0.00/0.00	c |                                                                                                       |
0.00/0.00	c |  Problem Format:             MaxSAT                                                                   |
0.00/0.00	c |  Problem Type:           Unweighted                                                                   |
0.00/0.00	c |  Number of variables:           594                                                                   |
0.00/0.00	c |  Number of hard clauses:          0                                                                   |
0.00/0.00	c |  Number of soft clauses:       1573                                                                   |
0.00/0.00	c |  Number of cardinality:           0                                                                   |
0.00/0.00	c |  Number of PB :                   0                                                                   |
0.00/0.00	c |  Parse time:                   0.00 s                                                                 |
0.00/0.00	c |                                                                                                       |
0.00/0.00	c | best-alg-selector overriden target_vars_bump_val to 0, since it hadn't been set by the user |
0.00/0.00	c | best-alg-selector overriden ms_model_per_sec_thr to 2, since it hadn't been set by the user |
0.00/0.00	c | best-alg-selector overriden ms_mutation_classes to 0, since it hadn't been set by the user |
0.00/0.00	c | best-alg-selector overriden ms_chrono to 100, since it hadn't been set by the user |
0.00/0.00	c ==========================================[ Solver Settings ]============================================
0.00/0.00	c |                                                                                                       |
0.00/0.00	c |  Algorithm:                     OBV                                                                   |
0.00/0.00	c |  Cardinality Encoding:       Modulo Totalizer                                                         |
0.00/0.00	c |  Limit number conflicts:       1000                                                                   |
0.00/0.00	c |  Limit number iterations: 2147483647                                                                   |
0.00/0.00	c |  Global limit number conflicts:   F                                                                   |
0.00/0.00	c |                                                                                                       |
0.00/0.00	c Mrs. Beaver incomplete stage
0.00/0.00	o 139
0.00/0.00	c total_lit_count 3740
0.00/0.00	c before build neighbor
0.00/0.00	c build instime is 0
0.00/0.00	c using neighbor 
0.00/0.00	c build NuWLS instance done!
0.00/0.00	c changing to NuWLS solver!!!
0.00/0.00	c problem weighted = 0
0.00/0.00	o 139
0.00/0.00	o 136
0.00/0.00	o 134
0.00/0.00	o 132
0.00/0.00	o 130
0.00/0.00	o 128
0.00/0.00	o 126
0.00/0.00	o 124
0.00/0.00	o 123
0.00/0.00	o 122
0.00/0.00	o 120
0.00/0.00	o 119
0.00/0.00	o 118
0.00/0.00	o 117
0.00/0.00	o 116
0.00/0.00	o 115
0.00/0.00	o 114
0.00/0.00	o 113
0.00/0.00	o 112
0.00/0.00	o 111
0.00/0.00	o 110
0.00/0.00	o 109
0.00/0.00	o 108
0.00/0.00	o 107
0.00/0.00	o 106
0.00/0.00	o 105
0.00/0.00	o 104
0.00/0.00	o 103
0.00/0.00	o 102
0.00/0.00	o 101
0.00/0.00	o 100
0.00/0.00	o 99
0.00/0.00	o 98
0.00/0.00	o 97
0.00/0.00	o 96
0.00/0.00	o 95
0.00/0.00	o 94
0.00/0.00	o 93
0.00/0.00	o 92
0.00/0.00	o 91
0.00/0.00	o 90
0.00/0.00	o 89
0.00/0.00	o 88
0.00/0.00	o 87
0.00/0.00	o 86
0.00/0.00	o 85
0.00/0.00	o 84
0.00/0.00	o 82
0.00/0.00	o 81
0.00/0.00	o 80
0.00/0.00	o 79
0.00/0.00	o 78
0.00/0.00	o 77
0.00/0.00	o 76
0.00/0.00	o 75
0.00/0.00	o 74
0.00/0.00	o 73
0.00/0.00	o 72
0.00/0.00	o 71
0.00/0.00	o 70
0.00/0.01	o 69
0.00/0.01	o 68
0.00/0.01	o 67
0.00/0.01	o 66
0.00/0.01	o 65
0.00/0.01	o 64
0.02/0.02	s SATISFIABLE
0.02/0.02	o 64 
0.02/0.02	v 010111010100011101010000101001001100011011100111000101100011101111100110110001111111001011110101010101110000100011000101010110010101010001101011111011101011111100100010110011100010000100000110010110011111110110110101010101000101000001010000100110110101001001010111001100011111100011110101111110100011010101110110010100010100111011100010110010000010101111110101100100001110011100000111000111100011001110110110110000011011010001111110001111001011001010100010101100010111000100111010111000101100011100000100100010100000010101110110010000000110010011011100000000100000100100000101101101101100101010
c [MSE2022] -- end -- [MSE2022]
